
Gurobi 11.0.3 (linux64) logging started Thu Nov 21 12:28:05 2024

Set parameter LogFile to value "/home/yihong/Coding/OR_SUC/SUC_results_bigM100000_thread4/case24_ieee_rts_theta0.5_epsilon0.05_gurobi_seed270000_num_gen100_N_WDR100_load_scaling_factor1_exact_T20quadra_cost.txt"
Set parameter TimeLimit to value 3600
Gurobi Optimizer version 11.0.3 build v11.0.3rc0 (linux64 - "Ubuntu 20.04.6 LTS")

CPU model: AMD EPYC 7532 32-Core Processor, instruction set [SSE2|AVX|AVX2]
Thread count: 64 physical cores, 128 logical processors, using up to 4 threads

Optimize a model with 47983 rows, 25001 columns and 1104482 nonzeros
Model fingerprint: 0x583e5799
Model has 2000 quadratic constraints
Variable types: 22901 continuous, 2100 integer (2100 binary)
Coefficient statistics:
  Matrix range     [3e-04, 1e+05]
  QMatrix range    [2e-03, 8e-03]
  QLMatrix range   [2e-01, 6e+01]
  Objective range  [1e+00, 1e+00]
  Bounds range     [1e+00, 1e+00]
  RHS range        [1e+00, 1e+05]
Presolve removed 39187 rows and 10601 columns
Presolve time: 0.33s
Presolved: 8796 rows, 14400 columns, 49439 nonzeros
Presolved model has 2000 quadratic constraint(s)
Variable types: 12308 continuous, 2092 integer (2092 binary)

Root relaxation: objective 3.981507e+04, 7210 iterations, 0.19 seconds (0.28 work units)

    Nodes    |    Current Node    |     Objective Bounds      |     Work
 Expl Unexpl |  Obj  Depth IntInf | Incumbent    BestBd   Gap | It/Node Time

     0     0 39815.0687    0   13          - 39815.0687      -     -    0s
     0     0 304889.766    0  769          - 304889.766      -     -    1s
     0     0 305288.535    0  760          - 305288.535      -     -    1s
     0     0 540019.188    0  728          - 540019.188      -     -    1s
     0     0 540300.530    0  336          - 540300.530      -     -    1s
     0     0 540741.243    0  155          - 540741.243      -     -    1s
     0     0 540741.566    0  166          - 540741.566      -     -    1s
     0     0 540742.983    0  166          - 540742.983      -     -    1s
     0     2 540742.983    0  166          - 540742.983      -     -    2s
H  202   275                    540815.06543 540744.458  0.01%  18.3    4s
*  202   275              90    540815.06543 540744.458  0.01%  18.3    4s

Cutting planes:
  Gomory: 17
  Implied bound: 335
  MIR: 170
  Flow cover: 402
  RLT: 4

Explored 280 nodes (24312 simplex iterations) in 5.09 seconds (6.47 work units)
Thread count was 4 (of 128 available processors)

Solution count 2: 540815 540815 

Optimal solution found (tolerance 1.00e-03)
Warning: max constraint violation (2.5031e-07) exceeds tolerance
Best objective 5.408150654254e+05, best bound 5.407444575694e+05, gap 0.0131%
